Solving original (integer) problem with strategy gdp.bigm...
--- Job model.gms Start 02/15/26 00:11:06 52.2.0 d8e408be LEX-LEG x86 64bit/Linux
--- Applying:
    /package/gams/52.2/gmsprmun.txt
--- GAMS Parameters defined
    Input /local/scratch/a/sgusev/repos/k_means/data/gams_gurobi_gdp.bigm/no_mode/2026-02-15_00-11-06/original/model.gms
    Output /local/scratch/a/sgusev/repos/k_means/data/gams_gurobi_gdp.bigm/no_mode/2026-02-15_00-11-06/original/output.lst
    ScrDir /local/scratch/a/sgusev/repos/k_means/data/gams_gurobi_gdp.bigm/no_mode/2026-02-15_00-11-06/original/225a/
    SysDir /package/gams/52.2/
    CurDir /local/scratch/a/sgusev/repos/k_means/data/gams_gurobi_gdp.bigm/no_mode/2026-02-15_00-11-06/original/
    LogOption 3
    AppendLog 1
Licensee: David Bernal / SECQUOIA Research Group         G251008+0003Ac-GEN
          Purdue University, Davidson School of Chemical EngineeringDCE4838
          225a/gamslice.dat
          5a82958a-fbca-4a23
          node:66820903 mem:995 cores:48 ipport:50309 v:2                  
          Evaluation license: Not for commercial or production use
          The time-limited license stops working on : Jun 30, 2027
System information: 48 physical cores and 995 Gb physical memory detected
GAMS 52.2.0   Copyright (C) 1987-2025 GAMS Development. All rights reserved
--- Starting compilation
--- model.gms(373) 2 Mb
--- $echo File /local/scratch/a/sgusev/repos/k_means/data/gams_gurobi_gdp.bigm/no_mode/2026-02-15_00-11-06/original/gurobi.opt
--- model.gms(647) 2 Mb
--- Starting execution: elapsed 0:00:00.007
--- model.gms(382) 3 Mb
--- Generating MINLP model GAMS_MODEL
--- model.gms(386) 5 Mb
---   101 rows  107 columns  425 non-zeroes
---   720 nl-code  160 nl-non-zeroes
---   80 discrete-columns
--- Range statistics (absolute non-zero finite values)
--- RHS       [min, max] : [ 1.000E+00, 6.679E+00] - Zero values observed as well
--- Bound     [min, max] : [ 1.000E+00, 6.400E+01] - Zero values observed as well
--- Matrix    [min, max] : [ 1.040E-03, 6.679E+00]
--- model.gms(386) 3 Mb
--- Executing GUROBI (Solvelink=5): elapsed 0:00:00.011
Reading parameter(s) from "/local/scratch/a/sgusev/repos/k_means/data/gams_gurobi_gdp.bigm/no_mode/2026-02-15_00-11-06/original/gurobi.opt"
>>  NonConvex 2
>>  Threads 1
>>  MIPGap 1e-06
>>  MIPGapAbs 1e-10
>>  FeasibilityTol 1e-06
>>  OptimalityTol 1e-06
>>  IntFeasTol 1e-05
Finished reading from "/local/scratch/a/sgusev/repos/k_means/data/gams_gurobi_gdp.bigm/no_mode/2026-02-15_00-11-06/original/gurobi.opt"

... GRB_LICENSE_FILE = /local/scratch/a/sgusev/gurobi.lic

    Gurobi           52.2.0 d8e408be Dec 8, 2025           LEG x86 64bit/Linux    

... GAMS/Gurobi Link license.
... GMO Q Extraction (ThreePass): 0.00s

    Gurobi Optimizer version 13.0.0 build v13.0.0rc1 (linux64 - "Oracle Linux Server 9.7")
    
    CPU model: AMD EPYC 7643 48-Core Processor, instruction set [SSE2|AVX|AVX2]
    Thread count: 48 physical cores, 96 logical processors, using up to 1 threads
    
    Non-default parameters:
    TimeLimit  300
    MIPGap  1e-06
    LogToConsole  0
    NonConvex  2
    Threads  1
    
    Optimize a model with 20 rows, 106 columns and 88 nonzeros (Min)
    Model fingerprint: 0x0c506424
    Model has 16 linear objective coefficients
    Model has 80 quadratic constraints
    Variable types: 26 continuous, 80 integer (0 binary)
    Coefficient statistics:
      Matrix range     [1e+00, 1e+00]
      QMatrix range    [1e+00, 1e+00]
      QLMatrix range   [1e-03, 7e+00]
      Objective range  [1e+00, 1e+00]
      Bounds range     [1e+00, 6e+01]
      RHS range        [1e+00, 1e+00]
      QRHS range       [2e+00, 5e+00]
    Presolve added 80 rows and 5 columns
    Presolve time: 0.00s
    Presolved: 100 rows, 111 columns, 488 nonzeros
    Presolved model has 5 quadratic constraint(s)
    Variable types: 31 continuous, 80 integer (80 binary)
    
    Root relaxation: objective 0.000000e+00, 31 iterations, 0.00 seconds (0.00 work units)
    
        Nodes    |    Current Node    |     Objective Bounds      |     Work
     Expl Unexpl |  Obj  Depth IntInf | Incumbent    BestBd   Gap | It/Node Time
    
    H    0     0                       3.2692442    0.00000   100%     -    0s
    *    0     0               0       3.2692442    0.00000   100%     -    0s
         0     0    0.00000    0   15    3.26924    0.00000   100%     -    0s
         0     0    0.00000    0   23    3.26924    0.00000   100%     -    0s
         0     0    0.00000    0   26    3.26924    0.00000   100%     -    0s
         0     0    0.00000    0   33    3.26924    0.00000   100%     -    0s
         0     0    0.00000    0    -    3.26924    0.00000   100%     -    0s
         0     0    0.00000    0   20    3.26924    0.00000   100%     -    0s
         0     0    0.00000    0   18    3.26924    0.00000   100%     -    0s
         0     0    0.00000    0   14    3.26924    0.00000   100%     -    0s
         0     0    0.00000    0   34    3.26924    0.00000   100%     -    0s
         0     0    0.00000    0    4    3.26924    0.00000   100%     -    0s
         0     0    0.00000    0   22    3.26924    0.00000   100%     -    0s
         0     0    0.00000    0   20    3.26924    0.00000   100%     -    0s
         0     0    0.00000    0   22    3.26924    0.00000   100%     -    0s
         0     0    0.00000    0   22    3.26924    0.00000   100%     -    0s
         0     0    0.00000    0   22    3.26924    0.00000   100%     -    0s
         0     0    0.00000    0    4    3.26924    0.00000   100%     -    0s
         0     0    0.00000    0   20    3.26924    0.00000   100%     -    0s
         0     0    0.00000    0   14    3.26924    0.00000   100%     -    0s
         0     0    0.00000    0   24    3.26924    0.00000   100%     -    0s
         0     0    0.00000    0    6    3.26924    0.00000   100%     -    0s
         0     0    0.00000    0   20    3.26924    0.00000   100%     -    0s
         0     0    0.00000    0   14    3.26924    0.00000   100%     -    0s
         0     0    0.00000    0   26    3.26924    0.00000   100%     -    0s
         0     0    0.00000    0    2    3.26924    0.00000   100%     -    0s
         0     0    0.00000    0   16    3.26924    0.00000   100%     -    0s
         0     0    0.00000    0   16    3.26924    0.00000   100%     -    0s
         0     0    0.00000    0   20    3.26924    0.00000   100%     -    0s
         0     0    0.00000    0   16    3.26924    0.00000   100%     -    0s
         0     0    0.00000    0   22    3.26924    0.00000   100%     -    0s
         0     0    0.00000    0   22    3.26924    0.00000   100%     -    0s
         0     0    0.00000    0   26    3.26924    0.00000   100%     -    0s
         0     0    0.00000    0   24    3.26924    0.00000   100%     -    0s
         0     0    0.00000    0   24    3.26924    0.00000   100%     -    0s
         0     0    0.00000    0   24    3.26924    0.00000   100%     -    0s
         0     0    0.00000    0   28    3.26924    0.00000   100%     -    0s
         0     0    0.00000    0    2    3.26924    0.00000   100%     -    0s
         0     0    0.00000    0   28    3.26924    0.00000   100%     -    0s
         0     0    0.00000    0   16    3.26924    0.00000   100%     -    0s
         0     0    0.00000    0   24    3.26924    0.00000   100%     -    0s
         0     0    0.00000    0   24    3.26924    0.00000   100%     -    0s
         0     0    0.00000    0   28    3.26924    0.00000   100%     -    0s
         0     0    0.00000    0   20    3.26924    0.00000   100%     -    0s
         0     0    0.00000    0   22    3.26924    0.00000   100%     -    0s
         0     0    0.00000    0    2    3.26924    0.00000   100%     -    0s
         0     0    0.00000    0   20    3.26924    0.00000   100%     -    0s
         0     0    0.00000    0   20    3.26924    0.00000   100%     -    0s
         0     0    0.00000    0   26    3.26924    0.00000   100%     -    0s
         0     0    0.00000    0   18    3.26924    0.00000   100%     -    0s
         0     0    0.00000    0   27    3.26924    0.00000   100%     -    0s
    H    0     0                       1.4769404    0.00000   100%     -    0s
    *    0     0               0       1.4769404    0.00000   100%     -    0s
         0     0    0.00000    0   18    1.47694    0.00000   100%     -    0s
         0     0    0.00000    0   29    1.47694    0.00000   100%     -    0s
         0     0    0.00000    0   20    1.47694    0.00000   100%     -    0s
         0     0    0.00000    0   28    1.47694    0.00000   100%     -    0s
         0     0    0.00000    0    6    1.47694    0.00000   100%     -    0s
         0     0    0.00000    0   24    1.47694    0.00000   100%     -    0s
         0     0    0.00000    0   14    1.47694    0.00000   100%     -    0s
         0     0    0.00000    0   28    1.47694    0.00000   100%     -    0s
         0     0    0.00000    0   16    1.47694    0.00000   100%     -    0s
         0     0    0.00000    0   26    1.47694    0.00000   100%     -    0s
         0     0    0.00000    0   24    1.47694    0.00000   100%     -    0s
         0     0    0.00000    0   23    1.47694    0.00000   100%     -    0s
         0     0    0.00000    0   20    1.47694    0.00000   100%     -    0s
         0     0    0.00000    0   23    1.47694    0.00000   100%     -    0s
         0     0    0.00000    0   23    1.47694    0.00000   100%     -    0s
         0     0    0.00000    0   43    1.47694    0.00000   100%     -    0s
         0     0    0.00000    0   16    1.47694    0.00000   100%     -    0s
         0     0    0.00000    0   27    1.47694    0.00000   100%     -    0s
         0     0    0.00000    0   24    1.47694    0.00000   100%     -    0s
         0     0    0.00000    0   28    1.47694    0.00000   100%     -    0s
         0     0    0.00000    0   14    1.47694    0.00000   100%     -    0s
         0     0    0.00000    0   24    1.47694    0.00000   100%     -    0s
         0     0    0.00000    0   22    1.47694    0.00000   100%     -    0s
         0     0    0.00000    0   22    1.47694    0.00000   100%     -    0s
         0     0    0.00000    0   22    1.47694    0.00000   100%     -    0s
         0     0    0.00000    0   30    1.47694    0.00000   100%     -    0s
         0     0    0.00000    0   22    1.47694    0.00000   100%     -    0s
         0     0    0.00000    0   22    1.47694    0.00000   100%     -    0s
         0     0    0.00000    0   22    1.47694    0.00000   100%     -    0s
         0     0    0.00000    0   22    1.47694    0.00000   100%     -    0s
         0     0    0.00000    0   22    1.47694    0.00000   100%     -    0s
         0     0    0.00000    0   30    1.47694    0.00000   100%     -    0s
         0     0    0.00000    0   18    1.47694    0.00000   100%     -    0s
         0     0    0.00000    0   22    1.47694    0.00000   100%     -    0s
         0     0    0.00000    0   18    1.47694    0.00000   100%     -    0s
         0     0    0.00000    0   20    1.47694    0.00000   100%     -    0s
         0     0    0.00000    0   20    1.47694    0.00000   100%     -    0s
         0     0    0.00000    0   26    1.47694    0.00000   100%     -    0s
         0     0    0.00000    0   18    1.47694    0.00000   100%     -    0s
         0     0    0.00000    0   26    1.47694    0.00000   100%     -    0s
         0     0    0.00000    0   14    1.47694    0.00000   100%     -    0s
         0     0    0.00000    0   26    1.47694    0.00000   100%     -    0s
         0     0    0.00000    0   14    1.47694    0.00000   100%     -    0s
         0     0    0.00000    0   20    1.47694    0.00000   100%     -    0s
         0     0    0.00000    0   18    1.47694    0.00000   100%     -    0s
         0     0    0.00000    0   30    1.47694    0.00000   100%     -    0s
         0     0    0.00000    0   18    1.47694    0.00000   100%     -    0s
         0     0    0.00000    0   22    1.47694    0.00000   100%     -    0s
         0     0    0.00000    0   22    1.47694    0.00000   100%     -    0s
         0     0    0.00000    0   28    1.47694    0.00000   100%     -    0s
         0     0    0.00000    0   26    1.47694    0.00000   100%     -    0s
         0     0    0.00000    0   26    1.47694    0.00000   100%     -    0s
         0     0    0.00000    0   18    1.47694    0.00000   100%     -    0s
         0     0    0.00000    0   20    1.47694    0.00000   100%     -    0s
         0     0    0.00000    0   20    1.47694    0.00000   100%     -    0s
         0     0    0.00000    0   28    1.47694    0.00000   100%     -    0s
         0     0    0.00000    0   26    1.47694    0.00000   100%     -    0s
         0     0    0.00000    0   24    1.47694    0.00000   100%     -    0s
         0     0    0.00000    0   12    1.47694    0.00000   100%     -    0s
         0     0    0.00000    0   26    1.47694    0.00000   100%     -    0s
         0     0    0.00000    0   18    1.47694    0.00000   100%     -    0s
         0     0    0.00000    0   24    1.47694    0.00000   100%     -    0s
         0     0    0.00000    0   12    1.47694    0.00000   100%     -    0s
         0     0    0.00000    0   24    1.47694    0.00000   100%     -    0s
         0     0    0.00000    0   24    1.47694    0.00000   100%     -    0s
         0     0    0.00000    0   26    1.47694    0.00000   100%     -    0s
         0     0    0.00000    0   24    1.47694    0.00000   100%     -    0s
         0     0    0.00000    0   24    1.47694    0.00000   100%     -    0s
         0     0    0.00000    0   24    1.47694    0.00000   100%     -    0s
         0     0    0.00000    0   28    1.47694    0.00000   100%     -    0s
         0     0    0.00000    0   18    1.47694    0.00000   100%     -    0s
         0     0    0.00000    0   30    1.47694    0.00000   100%     -    0s
         0     0    0.00000    0   22    1.47694    0.00000   100%     -    0s
         0     0    0.00000    0   24    1.47694    0.00000   100%     -    0s
         0     0    0.00000    0    6    1.47694    0.00000   100%     -    0s
         0     0    0.00000    0   29    1.47694    0.00000   100%     -    0s
         0     0    0.00000    0   14    1.47694    0.00000   100%     -    0s
         0     0    0.00000    0   24    1.47694    0.00000   100%     -    0s
         0     0    0.00000    0   22    1.47694    0.00000   100%     -    0s
         0     0    0.00000    0   22    1.47694    0.00000   100%     -    0s
         0     0    0.00000    0   20    1.47694    0.00000   100%     -    0s
         0     0    0.00000    0   25    1.47694    0.00000   100%     -    0s
         0     0    0.00000    0   14    1.47694    0.00000   100%     -    0s
         0     0    0.00000    0   25    1.47694    0.00000   100%     -    0s
         0     0    0.00000    0   25    1.47694    0.00000   100%     -    0s
         0     0    0.00000    0   29    1.47694    0.00000   100%     -    0s
         0     0    0.00000    0   18    1.47694    0.00000   100%     -    0s
         0     0    0.00000    0   26    1.47694    0.00000   100%     -    0s
         0     0    0.00000    0   26    1.47694    0.00000   100%     -    0s
         0     0    0.00000    0   28    1.47694    0.00000   100%     -    0s
         0     0    0.00000    0   24    1.47694    0.00000   100%     -    0s
         0     0    0.00000    0   24    1.47694    0.00000   100%     -    0s
         0     0    0.00000    0   24    1.47694    0.00000   100%     -    0s
         0     0    0.00000    0   30    1.47694    0.00000   100%     -    0s
         0     0    0.00000    0    6    1.47694    0.00000   100%     -    0s
         0     0    0.00000    0   22    1.47694    0.00000   100%     -    0s
         0     0    0.00000    0   22    1.47694    0.00000   100%     -    0s
         0     0    0.00000    0   28    1.47694    0.00000   100%     -    0s
         0     0    0.00000    0   20    1.47694    0.00000   100%     -    0s
         0     0    0.00000    0   26    1.47694    0.00000   100%     -    0s
         0     0    0.00000    0   24    1.47694    0.00000   100%     -    0s
         0     0    0.00000    0   28    1.47694    0.00000   100%     -    0s
         0     0    0.00000    0   18    1.47694    0.00000   100%     -    0s
         0     0    0.00000    0   24    1.47694    0.00000   100%     -    0s
         0     0    0.00000    0    2    1.47694    0.00000   100%     -    0s
         0     0    0.00000    0   26    1.47694    0.00000   100%     -    0s
         0     0    0.00000    0   18    1.47694    0.00000   100%     -    0s
         0     0    0.00000    0   21    1.47694    0.00000   100%     -    0s
         0     0    0.00000    0   21    1.47694    0.00000   100%     -    0s
         0     0    0.00000    0   35    1.47694    0.00000   100%     -    0s
         0     0    0.00000    0   19    1.47694    0.00000   100%     -    0s
         0     0    0.00000    0   29    1.47694    0.00000   100%     -    0s
         0     0    0.00000    0   18    1.47694    0.00000   100%     -    0s
         0     0    0.00000    0   28    1.47694    0.00000   100%     -    0s
         0     0    0.00000    0   18    1.47694    0.00000   100%     -    0s
         0     0    0.00000    0   28    1.47694    0.00000   100%     -    0s
         0     0    0.00000    0   20    1.47694    0.00000   100%     -    0s
         0     0    0.00000    0   18    1.47694    0.00000   100%     -    0s
         0     0    0.00000    0   18    1.47694    0.00000   100%     -    0s
         0     0    0.00000    0   28    1.47694    0.00000   100%     -    0s
         0     0    0.00000    0   20    1.47694    0.00000   100%     -    0s
         0     0    0.00000    0   22    1.47694    0.00000   100%     -    0s
         0     0    0.00000    0   22    1.47694    0.00000   100%     -    0s
         0     0    0.00000    0   34    1.47694    0.00000   100%     -    0s
         0     0    0.00000    0   16    1.47694    0.00000   100%     -    0s
         0     0    0.00000    0   26    1.47694    0.00000   100%     -    0s
         0     0    0.00000    0   20    1.47694    0.00000   100%     -    0s
         0     0    0.00000    0   24    1.47694    0.00000   100%     -    0s
         0     0    0.00000    0   10    1.47694    0.00000   100%     -    0s
         0     0    0.00000    0   26    1.47694    0.00000   100%     -    0s
         0     0    0.00000    0   22    1.47694    0.00000   100%     -    0s
         0     0    0.00000    0   24    1.47694    0.00000   100%     -    0s
         0     0    0.00000    0   18    1.47694    0.00000   100%     -    0s
         0     0    0.00000    0   20    1.47694    0.00000   100%     -    0s
         0     0    0.00000    0   20    1.47694    0.00000   100%     -    0s
         0     0    0.00000    0   31    1.47694    0.00000   100%     -    0s
         0     0    0.00000    0   12    1.47694    0.00000   100%     -    0s
         0     0    0.00000    0   26    1.47694    0.00000   100%     -    0s
         0     0    0.00000    0   24    1.47694    0.00000   100%     -    0s
         0     0    0.00000    0   26    1.47694    0.00000   100%     -    0s
         0     0    0.00000    0   18    1.47694    0.00000   100%     -    0s
         0     0    0.00000    0   22    1.47694    0.00000   100%     -    0s
         0     0    0.00000    0   20    1.47694    0.00000   100%     -    0s
         0     0    0.00000    0   24    1.47694    0.00000   100%     -    0s
         0     0    0.00000    0   18    1.47694    0.00000   100%     -    0s
         0     0    0.00000    0   26    1.47694    0.00000   100%     -    0s
         0     0    0.00000    0    2    1.47694    0.00000   100%     -    0s
         0     0    0.00000    0   25    1.47694    0.00000   100%     -    0s
         0     0    0.00000    0   24    1.47694    0.00000   100%     -    0s
         0     0    0.00000    0   24    1.47694    0.00000   100%     -    0s
         0     0    0.00000    0   20    1.47694    0.00000   100%     -    0s
         0     0    0.00000    0   22    1.47694    0.00000   100%     -    0s
         0     0    0.00000    0   22    1.47694    0.00000   100%     -    0s
         0     2    0.00000    0   20    1.47694    0.00000   100%     -    0s
    H   52    46                       1.4769404    0.00000   100%   6.3    0s
    H  156   124                       1.4769404    0.00000   100%   6.7    0s
    H  260   189                       1.4769404    0.00000   100%   7.2    0s
    H  313   207                       1.3887316    0.00000   100%   7.4    0s
    H  446   274                       1.3887316    0.00000   100%  52.3    1s
    H  538   283                       1.3887316    0.00000   100%  45.1    1s
    H  597   276                       1.3887316    0.00000   100%  41.6    1s
    H  681   292                       1.3887316    0.00000   100%  37.5    1s
    H  914   318                       1.3080913    0.00000   100%  29.8    1s
    H  915   306                       1.3080913    0.00000   100%  29.8    1s
    H  916   294                       1.3080913    0.00000   100%  29.7    1s
    H  918   285                       1.3080913    0.00000   100%  29.7    1s
    H  919   257                       1.1984740    0.00000   100%  29.7    1s
    H  920   255                       1.1984740    0.00000   100%  29.6    1s
    H 1119   361                       1.1984740    0.00000   100%  25.7    1s
    H 2189   818                       1.1984740    0.00000   100%  17.6    2s
    H 2199   828                       1.1984740    0.00000   100%  17.6    2s
    H 2456   949                       1.1984740    0.00000   100%  16.3    2s
    H 2494   967                       1.1984740    0.00000   100%  16.2    2s
    H 2528   982                       1.1984740    0.00000   100%  16.0    2s
    H13903  4349                       1.0858505    0.21333  80.4%   9.0    4s
     16427  4803     cutoff   39         1.08585    0.27385  74.8%   8.8    5s
     37987  6949    1.05153   38   14    1.08585    0.53252  51.0%   8.4   10s
    H42016  6903                       1.0826954    0.58069  46.4%   8.5   11s
    H46867  6790                       1.0826954    0.62291  42.5%   8.5   12s
    H46867  6790                       1.0826954    0.62291  42.5%   8.5   12s
    H46867  6715                       1.0698467    0.62291  41.8%   8.5   12s
    H46867  6715                       1.0698467    0.62291  41.8%   8.5   12s
    H47963  6637                       1.0698467    0.63170  41.0%   8.5   12s
    H48155  6616                       1.0698467    0.63371  40.8%   8.5   13s
    H48497  6561                       1.0698467    0.63866  40.3%   8.5   13s
    H48549  6552                       1.0698467    0.63910  40.3%   8.5   13s
     54517  5456     cutoff   35         1.06985    0.72463  32.3%   8.6   15s
    *65973     0              56       1.0698466    1.06985  0.00%   8.5   18s
    
    Cutting planes:
      Gomory: 2
      Flow cover: 2
    
    Explored 65974 nodes (572976 simplex iterations) in 18.84 seconds (16.68 work units)
    Thread count was 1 (of 96 available processors)
    
    Solution count 9: 1.06985 1.06985 1.0827 ... 3.26924
    No other solutions better than 1.06985
    
    Optimal solution found (tolerance 1.00e-06)
    Best objective 1.069846568334e+00, best bound 1.069846568334e+00, gap 0.0000%
    
    User-callback calls 66107, time in user-callback 0.00 sec

... Solving fixed model...

    Gurobi Optimizer version 13.0.0 build v13.0.0rc1 (linux64 - "Oracle Linux Server 9.7")
    
    CPU model: AMD EPYC 7643 48-Core Processor, instruction set [SSE2|AVX|AVX2]
    Thread count: 48 physical cores, 96 logical processors, using up to 1 threads
    
    Non-default parameters:
    TimeLimit  300
    MIPGap  1e-06
    LogToConsole  0
    NonConvex  2
    Threads  1
    
    Optimize a model with 20 rows, 106 columns and 88 nonzeros (Min)
    Model fingerprint: 0x5fe3b4c0
    Model has 16 linear objective coefficients
    Model has 80 quadratic constraints
    Coefficient statistics:
      Matrix range     [1e+00, 1e+00]
      QMatrix range    [1e+00, 1e+00]
      QLMatrix range   [1e-03, 7e+00]
      Objective range  [1e+00, 1e+00]
      Bounds range     [1e+00, 6e+01]
      RHS range        [1e+00, 1e+00]
      QRHS range       [2e+00, 5e+00]
    Presolve removed 16 rows and 81 columns
    Presolve time: 0.00s
    Presolved: 62 rows, 79 columns, 151 nonzeros
    Presolved model has 16 second-order cone constraints
    Ordering time: 0.00s
    
    Barrier statistics:
     AA' NZ     : 3.770e+02
     Factor NZ  : 6.150e+02
     Factor Ops : 8.063e+03 (less than 1 second per iteration)
     Threads    : 1
    
                      Objective                Residual
    Iter       Primal          Dual         Primal    Dual     Compl     Time
       0   4.41579005e+02 -3.34775790e+02  6.06e+00 3.80e+00  8.61e+00     0s
       1   3.12800405e+01 -4.39062916e+01  6.67e-06 4.18e-06  6.84e-01     0s
       2   1.82385498e+00 -9.98310751e+00  1.90e-07 1.05e-06  1.07e-01     0s
       3   1.33718688e+00 -1.58443431e+00  3.00e-10 2.48e-07  2.66e-02     0s
       4   1.12410157e+00  6.65913274e-01  2.21e-14 3.63e-08  4.17e-03     0s
       5   1.07212551e+00  1.04356272e+00  1.68e-13 2.22e-09  2.60e-04     0s
       6   1.06999448e+00  1.06934451e+00  1.39e-12 1.95e-11  5.91e-06     0s
       7   1.06984858e+00  1.06983576e+00  2.38e-11 4.24e-13  1.17e-07     0s
       8   1.06984700e+00  1.06984403e+00  3.77e-10 1.09e-12  2.70e-08     0s
       9   1.06984670e+00  1.06984584e+00  1.64e-09 3.06e-11  7.76e-09     0s
    
    Barrier solved model in 9 iterations and 0.00 seconds (0.00 work units)
    Optimal objective 1.06984670e+00
    
    
    User-callback calls 0, time in user-callback 0.00 sec
    Warning: to get QCP duals, please set parameter QCPDual to 1

--- Reading solution for model GAMS_MODEL
***
*** Solver did not provide marginals for model GAMS_MODEL
***
--- Executing after solve: elapsed 0:00:18.883
--- model.gms(389) 3 Mb
--- model.gms(647) 5 Mb
--- Putfile results /local/scratch/a/sgusev/repos/k_means/data/gams_gurobi_gdp.bigm/no_mode/2026-02-15_00-11-06/original/results.dat
--- Putfile statresults /local/scratch/a/sgusev/repos/k_means/data/gams_gurobi_gdp.bigm/no_mode/2026-02-15_00-11-06/original/resultsstat.dat
*** Status: Normal completion
--- Job model.gms Stop 02/15/26 00:11:25 elapsed 0:00:18.884
Original problem solved. Time taken: 19.447357416152954 seconds
Original objective value: 1.069846697902528
